
Gurobi 7.0.2 (mac64, Python) logging started Wed Nov 29 10:03:36 2017


Gurobi 7.0.2 (mac64, Python) logging started Wed Nov 29 10:13:47 2017


Gurobi 7.0.2 (mac64, Python) logging started Wed Nov 29 10:18:18 2017


Gurobi 7.0.2 (mac64, Python) logging started Wed Nov 29 10:18:32 2017


Gurobi 7.0.2 (mac64, Python) logging started Wed Nov 29 10:18:58 2017


Gurobi 7.0.2 (mac64, Python) logging started Wed Nov 29 11:08:57 2017


Gurobi 7.0.2 (mac64, Python) logging started Wed Nov 29 11:09:29 2017


Gurobi 7.0.2 (mac64, Python) logging started Wed Nov 29 11:12:49 2017


Gurobi 7.0.2 (mac64, Python) logging started Wed Nov 29 11:14:17 2017


Gurobi 7.0.2 (mac64, Python) logging started Wed Nov 29 11:14:32 2017


Gurobi 7.0.2 (mac64, Python) logging started Wed Nov 29 11:15:39 2017

Warning: constraint name "AR1[0,<__main__.Reservoir object at 0x1088089e8>]" has a space
Warning: constraint name "AR1[0,<__main__.Reservoir object at 0x1088089e8>]" has a space
Warning: constraint name "AR1[0,<__main__.Reservoir object at 0x1088089e8>]" has a space
Warning: constraint name "AR1[0,<__main__.Reservoir object at 0x1088089e8>]" has a space
Warning: constraint name "AR1[0,<__main__.Reservoir object at 0x1088089e8>]" has a space
Warning: constraint name "AR1[0,<__main__.Reservoir object at 0x1088089e8>]" has a space
Warning: constraint name "AR1[0,<__main__.Reservoir object at 0x1088089e8>]" has a space
Warning: constraint name "AR1[0,<__main__.Reservoir object at 0x1088089e8>]" has a space
Warning: constraint name "AR1[0,<__main__.Reservoir object at 0x1088089e8>]" has a space
Warning: constraint name "AR1[0,<__main__.Reservoir object at 0x1088089e8>]" has a space
Warning: constraint name "AR1[0,<__main__.Reservoir object at 0x1088089e8>]" has a space
Warning: constraint name "AR1[0,<__main__.Reservoir object at 0x1088089e8>]" has a space
Warning: constraint name "AR1[0,<__main__.Reservoir object at 0x1088089e8>]" has a space
Warning: constraint name "AR1[0,<__main__.Reservoir object at 0x1088089e8>]" has a space
Warning: constraint name "AR1[0,<__main__.Reservoir object at 0x1088089e8>]" has a space
Warning: constraint name "AR1[0,<__main__.Reservoir object at 0x1088089e8>]" has a space
Warning: constraint name "AR1[0,<__main__.Reservoir object at 0x1088089e8>]" has a space
Warning: constraint name "AR1[0,<__main__.Reservoir object at 0x1088089e8>]" has a space
Warning: constraint name "AR1[0,<__main__.Reservoir object at 0x1088089e8>]" has a space
Warning: constraint name "AR1[0,<__main__.Reservoir object at 0x1088089e8>]" has a space
Warning: constraint name "AR1[0,<__main__.Reservoir object at 0x1088089e8>]" has a space
Warning: constraint name "AR1[0,<__main__.Reservoir object at 0x1088089e8>]" has a space
Warning: constraint name "AR1[0,<__main__.Reservoir object at 0x1088089e8>]" has a space
Warning: constraint name "AR1[0,<__main__.Reservoir object at 0x1088089e8>]" has a space
Warning: constraint name "AR1[0,<__main__.Reservoir object at 0x1088089e8>]" has a space
Warning: constraint name "AR1[0,<__main__.Reservoir object at 0x1088089e8>]" has a space
Warning: constraint name "AR1[0,<__main__.Reservoir object at 0x1088089e8>]" has a space
Warning: constraint name "AR1[0,<__main__.Reservoir object at 0x1088089e8>]" has a space
Warning: constraint name "AR1[0,<__main__.Reservoir object at 0x1088089e8>]" has a space
Warning: constraint name "AR1[0,<__main__.Reservoir object at 0x1088089e8>]" has a space
Warning: constraint name "AR1[0,<__main__.Reservoir object at 0x1088089e8>]" has a space
Warning: constraint name "AR1[0,<__main__.Reservoir object at 0x1088089e8>]" has a space
Warning: constraint name "AR1[0,<__main__.Reservoir object at 0x1088089e8>]" has a space
Warning: constraint name "AR1[0,<__main__.Reservoir object at 0x1088089e8>]" has a space
Warning: constraint name "AR1[0,<__main__.Reservoir object at 0x1088089e8>]" has a space
Warning: constraint name "AR1[0,<__main__.Reservoir object at 0x1088089e8>]" has a space
Warning: constraint name "AR1[0,<__main__.Reservoir object at 0x1088089e8>]" has a space
Warning: constraint name "AR1[0,<__main__.Reservoir object at 0x1088089e8>]" has a space
Warning: constraint name "AR1[0,<__main__.Reservoir object at 0x1088089e8>]" has a space
Warning: constraint name "AR1[0,<__main__.Reservoir object at 0x1088089e8>]" has a space
Warning: constraint name "AR1[0,<__main__.Reservoir object at 0x1088089e8>]" has a space
Warning: constraint name "AR1[0,<__main__.Reservoir object at 0x1088089e8>]" has a space
Warning: constraint name "AR1[0,<__main__.Reservoir object at 0x1088089e8>]" has a space
Warning: constraint name "AR1[0,<__main__.Reservoir object at 0x1088089e8>]" has a space
Warning: constraint name "AR1[0,<__main__.Reservoir object at 0x1088089e8>]" has a space
Warning: constraint name "AR1[0,<__main__.Reservoir object at 0x1088089e8>]" has a space
Warning: constraint name "AR1[0,<__main__.Reservoir object at 0x1088089e8>]" has a space
Warning: constraint name "AR1[0,<__main__.Reservoir object at 0x1088089e8>]" has a space
Warning: constraint name "AR1[0,<__main__.Reservoir object at 0x1088089e8>]" has a space
Warning: constraint name "AR1[0,<__main__.Reservoir object at 0x1088089e8>]" has a space
Warning: constraint name "AR1[0,<__main__.Reservoir object at 0x1088089e8>]" has a space
Warning: constraint name "AR1[0,<__main__.Reservoir object at 0x1088089e8>]" has a space

Gurobi 7.0.2 (mac64, Python) logging started Wed Nov 29 11:16:57 2017


Gurobi 7.0.2 (mac64, Python) logging started Wed Nov 29 11:18:19 2017


Gurobi 7.0.2 (mac64, Python) logging started Wed Nov 29 11:22:05 2017


Gurobi 7.0.2 (mac64, Python) logging started Wed Nov 29 11:22:46 2017


Gurobi 7.0.2 (mac64, Python) logging started Wed Nov 29 11:25:10 2017


Gurobi 7.0.2 (mac64, Python) logging started Wed Nov 29 11:26:44 2017


Gurobi 7.0.2 (mac64, Python) logging started Wed Nov 29 11:29:55 2017


Gurobi 7.0.2 (mac64, Python) logging started Wed Nov 29 11:31:11 2017


Gurobi 7.0.2 (mac64, Python) logging started Wed Nov 29 11:31:39 2017


Gurobi 7.0.2 (mac64, Python) logging started Wed Nov 29 11:37:40 2017


Gurobi 7.0.2 (mac64, Python) logging started Wed Nov 29 11:38:51 2017


Gurobi 7.0.2 (mac64, Python) logging started Wed Nov 29 11:45:38 2017


Gurobi 7.0.2 (mac64, Python) logging started Wed Nov 29 11:45:57 2017


Gurobi 7.0.2 (mac64, Python) logging started Wed Nov 29 11:49:54 2017


Gurobi 7.0.2 (mac64, Python) logging started Wed Nov 29 11:55:08 2017


Gurobi 7.0.2 (mac64, Python) logging started Wed Nov 29 11:56:38 2017


Gurobi 7.0.2 (mac64, Python) logging started Wed Nov 29 11:56:41 2017


Gurobi 7.0.2 (mac64, Python) logging started Wed Nov 29 14:17:19 2017


Gurobi 7.0.2 (mac64, Python) logging started Wed Nov 29 14:17:39 2017


Gurobi 7.0.2 (mac64, Python) logging started Wed Nov 29 14:20:54 2017


Gurobi 7.0.2 (mac64, Python) logging started Wed Nov 29 14:22:10 2017


Gurobi 7.0.2 (mac64, Python) logging started Wed Nov 29 14:25:54 2017


Gurobi 7.0.2 (mac64, Python) logging started Wed Nov 29 14:26:09 2017


Gurobi 7.0.2 (mac64, Python) logging started Wed Nov 29 14:27:11 2017


Gurobi 7.0.2 (mac64, Python) logging started Wed Nov 29 14:55:52 2017


Gurobi 7.0.2 (mac64, Python) logging started Thu Nov 30 20:30:10 2017

